(set-info :smt-lib-version 2.6)
(set-logic UF)
(set-info :source |Benchmarks from the paper: "Extending Sledgehammer with SMT Solvers" by Jasmin Blanchette, Sascha Bohme, and Lawrence C. Paulson, CADE 2011.  Translated to SMT2 by Andrew Reynolds and Morgan Deters.|)
(set-info :category "industrial")
(set-info :status unknown)
(declare-sort S1 0)
(declare-sort S2 0)
(declare-sort S3 0)
(declare-sort S4 0)
(declare-sort S5 0)
(declare-sort S6 0)
(declare-sort S7 0)
(declare-sort S8 0)
(declare-sort S9 0)
(declare-sort S10 0)
(declare-sort S11 0)
(declare-sort S12 0)
(declare-sort S13 0)
(declare-sort S14 0)
(declare-sort S15 0)
(declare-sort S16 0)
(declare-sort S17 0)
(declare-sort S18 0)
(declare-sort S19 0)
(declare-sort S20 0)
(declare-sort S21 0)
(declare-sort S22 0)
(declare-sort S23 0)
(declare-sort S24 0)
(declare-sort S25 0)
(declare-sort S26 0)
(declare-sort S27 0)
(declare-sort S28 0)
(declare-sort S29 0)
(declare-sort S30 0)
(declare-sort S31 0)
(declare-sort S32 0)
(declare-sort S33 0)
(declare-sort S34 0)
(declare-sort S35 0)
(declare-sort S36 0)
(declare-sort S37 0)
(declare-fun f1 () S1)
(declare-fun f2 () S1)
(declare-fun f3 (S2 S3) S1)
(declare-fun f4 (S4 S5) S2)
(declare-fun f5 () S4)
(declare-fun f6 (S6 S5) S5)
(declare-fun f7 (S7 S8) S6)
(declare-fun f8 () S7)
(declare-fun f9 (S9 S10) S8)
(declare-fun f10 () S9)
(declare-fun f11 () S10)
(declare-fun f12 (S11 S5) S6)
(declare-fun f13 () S11)
(declare-fun f14 (S12 S8) S5)
(declare-fun f15 () S12)
(declare-fun f16 () S8)
(declare-fun f17 (S13 S10) S5)
(declare-fun f18 () S13)
(declare-fun f19 () S10)
(declare-fun f20 () S12)
(declare-fun f21 () S8)
(declare-fun f22 () S5)
(declare-fun f23 (S14 S3) S3)
(declare-fun f24 () S14)
(declare-fun f25 (S15 S5) S14)
(declare-fun f26 () S15)
(declare-fun f27 () S5)
(declare-fun f28 (S16 S17) S3)
(declare-fun f29 (S18 S10) S16)
(declare-fun f30 () S18)
(declare-fun f31 () S10)
(declare-fun f32 () S17)
(declare-fun f33 () S8)
(declare-fun f34 () S10)
(declare-fun f35 (S19 S20) S1)
(declare-fun f36 (S21 S22) S19)
(declare-fun f37 () S21)
(declare-fun f38 (S23 S5) S22)
(declare-fun f39 (S24 S10) S23)
(declare-fun f40 (S25 S10) S24)
(declare-fun f41 () S25)
(declare-fun f42 (S26 S17) S20)
(declare-fun f43 () S26)
(declare-fun f44 (S27 S28) S1)
(declare-fun f45 (S29 S10) S27)
(declare-fun f46 () S29)
(declare-fun f47 () S28)
(declare-fun f48 (S30 S31) S1)
(declare-fun f49 (S32 S17) S30)
(declare-fun f50 () S32)
(declare-fun f51 () S31)
(declare-fun f52 () S14)
(declare-fun f53 () S14)
(declare-fun f54 (S31 S17) S1)
(declare-fun f55 (S33 S5) S31)
(declare-fun f56 (S34 S10) S33)
(declare-fun f57 (S35 S10) S34)
(declare-fun f58 () S35)
(declare-fun f59 (S28 S10) S1)
(declare-fun f60 (S20 S22) S1)
(declare-fun f61 (S3 S5) S1)
(declare-fun f62 () S10)
(declare-fun f63 () S24)
(declare-fun f64 (S36 S17) S17)
(declare-fun f65 (S37 S22) S36)
(declare-fun f66 () S37)
(assert (not (= f1 f2)))
(assert (let ((?v_1 (f23 f24 (f23 (f25 f26 f27) (f28 (f29 f30 f31) f32)))) (?v_0 (f14 f15 f33))) (let ((?v_2 (f6 (f7 f8 f21) (f6 (f12 f13 ?v_0) ?v_0)))) (not (=> (= (f3 (f4 f5 (f6 (f7 f8 (f9 f10 f11)) (f6 (f12 f13 (f14 f15 f16)) (f6 (f12 f13 (f17 f18 f19)) (f6 (f12 f13 (f14 f20 f21)) f22))))) ?v_1) f1) (=> (= (f3 (f4 f5 ?v_2) ?v_1) f1) (or (and (= f11 f31) (and (= f19 f34) (= ?v_2 f27))) (= (f35 (f36 f37 (f38 (f39 (f40 f41 f11) f19) ?v_2)) (f42 f43 f32)) f1))))))))
(assert (not (= (f44 (f45 f46 f11) f47) f1)))
(assert (not (= (f44 (f45 f46 f19) f47) f1)))
(assert (= (f48 (f49 f50 f32) f51) f1))
(assert (= (f3 (f4 f5 f27) (f23 f52 (f23 f53 (f28 (f29 f30 f31) f32)))) f1))
(assert (not (= (f3 (f4 f5 (f14 f20 f21)) (f23 f53 (f28 (f29 f30 f31) f32))) f1)))
(assert (let ((?v_0 (f14 f15 f33))) (let ((?v_2 (f6 (f7 f8 f21) (f6 (f12 f13 ?v_0) ?v_0))) (?v_1 (f23 f24 (f28 (f29 f30 f31) f32)))) (=> (= (f3 (f4 f5 (f6 (f7 f8 (f9 f10 f11)) (f6 (f12 f13 (f14 f15 f16)) (f6 (f12 f13 (f17 f18 f19)) (f6 (f12 f13 (f14 f20 f21)) f22))))) ?v_1) f1) (=> (= (f3 (f4 f5 ?v_2) ?v_1) f1) (= (f35 (f36 f37 (f38 (f39 (f40 f41 f11) f19) ?v_2)) (f42 f43 f32)) f1))))))
(assert (forall ((?v0 S17) (?v1 S10)) (=> (= (f48 (f49 f50 ?v0) f51) f1) (= (= (f3 (f4 f5 (f14 f20 (f9 f10 ?v1))) (f23 f53 (f28 (f29 f30 f31) ?v0))) f1) (= (f44 (f45 f46 ?v1) f47) f1)))))
(assert (forall ((?v0 S17) (?v1 S10)) (=> (= (f48 (f49 f50 ?v0) f51) f1) (= (= (f3 (f4 f5 (f14 f20 (f9 f10 ?v1))) (f23 f24 (f28 (f29 f30 f31) ?v0))) f1) (= (f44 (f45 f46 ?v1) f47) f1)))))
(assert (forall ((?v0 S10) (?v1 S10) (?v2 S8) (?v3 S5) (?v4 S5) (?v5 S5) (?v6 S5) (?v7 S17)) (=> (= (f35 (f36 f37 (f38 (f39 (f40 f41 ?v0) ?v1) (f6 (f7 f8 ?v2) (f6 (f12 f13 ?v3) (f6 (f12 f13 ?v4) (f6 (f12 f13 ?v5) ?v6)))))) (f42 f43 ?v7)) f1) (= (f3 (f4 f5 ?v6) (f23 f24 (f28 (f29 f30 f31) ?v7))) f1))))
(assert (forall ((?v0 S10) (?v1 S17)) (=> (= (f44 (f45 f46 ?v0) f47) f1) (= (f3 (f4 f5 (f14 f20 (f9 f10 ?v0))) (f28 (f29 f30 f31) ?v1)) f1))))
(assert (forall ((?v0 S8) (?v1 S8) (?v2 S17) (?v3 S10) (?v4 S5) (?v5 S10) (?v6 S5)) (let ((?v_3 (f6 (f7 f8 ?v0) (f14 f15 ?v1))) (?v_2 (f28 (f29 f30 f31) ?v2))) (let ((?v_0 (f23 f24 ?v_2)) (?v_1 (f14 f20 ?v0))) (=> (= (f3 (f4 f5 ?v_3) ?v_0) f1) (=> (= (f3 (f4 f5 (f6 (f7 f8 (f9 f10 ?v3)) (f6 (f12 f13 ?v4) (f6 (f12 f13 (f17 f18 ?v5)) (f6 (f12 f13 ?v_1) ?v6))))) ?v_0) f1) (=> (not (= (f3 (f4 f5 ?v_1) (f23 f53 ?v_2)) f1)) (=> (not (= (f44 (f45 f46 ?v3) f47) f1)) (=> (not (= (f44 (f45 f46 ?v5) f47) f1)) (=> (= (f48 (f49 f50 ?v2) f51) f1) (= (f54 (f55 (f56 (f57 f58 ?v5) ?v3) ?v_3) ?v2) f1)))))))))))
(assert (forall ((?v0 S10) (?v1 S10) (?v2 S8) (?v3 S8) (?v4 S17)) (let ((?v_0 (f6 (f7 f8 ?v2) (f14 f15 ?v3)))) (=> (= (f35 (f36 f37 (f38 (f39 (f40 f41 ?v0) ?v1) ?v_0)) (f42 f43 ?v4)) f1) (=> (not (= (f3 (f4 f5 (f14 f20 ?v2)) (f23 f53 (f28 (f29 f30 f31) ?v4))) f1)) (=> (not (= (f44 (f45 f46 ?v1) f47) f1)) (=> (not (= (f44 (f45 f46 ?v0) f47) f1)) (=> (= (f48 (f49 f50 ?v4) f51) f1) (= (f54 (f55 (f56 (f57 f58 ?v0) ?v1) ?v_0) ?v4) f1)))))))))
(assert (forall ((?v0 S10) (?v1 S17)) (= (f3 (f4 f5 (f14 f20 (f9 f10 ?v0))) (f28 (f29 f30 ?v0) ?v1)) f1)))
(assert (forall ((?v0 S5) (?v1 S3) (?v2 S8)) (let ((?v_0 (f23 f52 ?v1))) (=> (= (f3 (f4 f5 ?v0) ?v_0) f1) (=> (= (f3 (f4 f5 (f14 f20 ?v2)) ?v1) f1) (= (f3 (f4 f5 (f6 (f7 f8 ?v2) ?v0)) ?v_0) f1))))))
(assert (forall ((?v0 S10) (?v1 S5) (?v2 S17)) (let ((?v_0 (f23 f53 (f28 (f29 f30 f31) ?v2)))) (=> (= (f3 (f4 f5 (f6 (f7 f8 (f9 f10 ?v0)) ?v1)) ?v_0) f1) (=> (= (f44 (f45 f46 ?v0) f47) f1) (= (f3 (f4 f5 ?v1) ?v_0) f1))))))
(assert (= (f44 (f45 f46 f31) f47) f1))
(assert (forall ((?v0 S10) (?v1 S3)) (= (f3 (f4 f5 (f17 f18 ?v0)) (f23 f52 ?v1)) f1)))
(assert (forall ((?v0 S10) (?v1 S10) (?v2 S5) (?v3 S17)) (=> (= (f35 (f36 f37 (f38 (f39 (f40 f41 ?v0) ?v1) ?v2)) (f42 f43 ?v3)) f1) (=> (=> (= (f3 (f4 f5 ?v2) (f23 f24 (f28 (f29 f30 f31) ?v3))) f1) false) false))))
(assert (forall ((?v0 S10) (?v1 S10) (?v2 S5) (?v3 S17)) (=> (= (f35 (f36 f37 (f38 (f39 (f40 f41 ?v0) ?v1) ?v2)) (f42 f43 ?v3)) f1) (= (f3 (f4 f5 ?v2) (f23 f53 (f28 (f29 f30 f31) ?v3))) f1))))
(assert (forall ((?v0 S5) (?v1 S3) (?v2 S5)) (let ((?v_0 (f23 f52 ?v1))) (=> (= (f3 (f4 f5 ?v0) ?v_0) f1) (=> (= (f3 (f4 f5 ?v2) ?v_0) f1) (= (f3 (f4 f5 (f6 (f12 f13 ?v0) ?v2)) ?v_0) f1))))))
(assert (forall ((?v0 S5) (?v1 S5) (?v2 S3)) (let ((?v_0 (f23 f24 ?v2))) (=> (= (f3 (f4 f5 (f6 (f12 f13 ?v0) ?v1)) ?v_0) f1) (=> (=> (= (f3 (f4 f5 ?v0) ?v_0) f1) (=> (= (f3 (f4 f5 ?v1) ?v_0) f1) false)) false)))))
(assert (forall ((?v0 S5) (?v1 S3)) (let ((?v_0 (f4 f5 ?v0))) (=> (= (f3 ?v_0 ?v1) f1) (= (f3 ?v_0 (f23 f53 ?v1)) f1)))))
(assert (forall ((?v0 S5) (?v1 S3)) (let ((?v_0 (f4 f5 ?v0))) (=> (= (f3 ?v_0 ?v1) f1) (= (f3 ?v_0 (f23 f24 ?v1)) f1)))))
(assert (forall ((?v0 S5) (?v1 S3)) (let ((?v_0 (f4 f5 ?v0))) (=> (= (f3 ?v_0 ?v1) f1) (= (f3 ?v_0 (f23 f52 ?v1)) f1)))))
(assert (forall ((?v0 S5) (?v1 S5) (?v2 S3)) (let ((?v_0 (f23 f53 ?v2))) (=> (= (f3 (f4 f5 (f6 (f12 f13 ?v0) ?v1)) ?v_0) f1) (=> (=> (= (f3 (f4 f5 ?v0) ?v_0) f1) (=> (= (f3 (f4 f5 ?v1) ?v_0) f1) false)) false)))))
(assert (forall ((?v0 S5) (?v1 S3)) (let ((?v_0 (f4 f5 ?v0)) (?v_1 (f23 f53 ?v1))) (=> (= (f3 ?v_0 (f23 f53 ?v_1)) f1) (= (f3 ?v_0 ?v_1) f1)))))
(assert (forall ((?v0 S3)) (let ((?v_0 (f23 f53 ?v0))) (= (f23 f53 ?v_0) ?v_0))))
(assert (forall ((?v0 S5) (?v1 S5) (?v2 S5) (?v3 S5)) (= (= (f6 (f12 f13 ?v0) ?v1) (f6 (f12 f13 ?v2) ?v3)) (and (= ?v0 ?v2) (= ?v1 ?v3)))))
(assert (forall ((?v0 S8) (?v1 S8)) (= (= (f14 f20 ?v0) (f14 f20 ?v1)) (= ?v0 ?v1))))
(assert (forall ((?v0 S5) (?v1 S3)) (let ((?v_0 (f4 f5 ?v0)) (?v_1 (f23 f24 ?v1))) (=> (= (f3 ?v_0 (f23 f24 ?v_1)) f1) (= (f3 ?v_0 ?v_1) f1)))))
(assert (forall ((?v0 S3)) (let ((?v_0 (f23 f24 ?v0))) (= (f23 f24 ?v_0) ?v_0))))
(assert (forall ((?v0 S8) (?v1 S5) (?v2 S8) (?v3 S5)) (= (= (f6 (f7 f8 ?v0) ?v1) (f6 (f7 f8 ?v2) ?v3)) (and (= ?v0 ?v2) (= ?v1 ?v3)))))
(assert (forall ((?v0 S8) (?v1 S8)) (= (= (f14 f15 ?v0) (f14 f15 ?v1)) (= ?v0 ?v1))))
(assert (forall ((?v0 S5) (?v1 S3)) (let ((?v_0 (f4 f5 ?v0)) (?v_1 (f23 f52 ?v1))) (=> (= (f3 ?v_0 (f23 f52 ?v_1)) f1) (= (f3 ?v_0 ?v_1) f1)))))
(assert (forall ((?v0 S3)) (let ((?v_0 (f23 f52 ?v0))) (= (f23 f52 ?v_0) ?v_0))))
(assert (forall ((?v0 S10) (?v1 S10)) (= (= (f17 f18 ?v0) (f17 f18 ?v1)) (= ?v0 ?v1))))
(assert (forall ((?v0 S10) (?v1 S10) (?v2 S5) (?v3 S10) (?v4 S10) (?v5 S5)) (= (= (f38 (f39 (f40 f41 ?v0) ?v1) ?v2) (f38 (f39 (f40 f41 ?v3) ?v4) ?v5)) (and (= ?v0 ?v3) (and (= ?v1 ?v4) (= ?v2 ?v5))))))
(assert (forall ((?v0 S10) (?v1 S10)) (= (= (f9 f10 ?v0) (f9 f10 ?v1)) (= ?v0 ?v1))))
(assert (forall ((?v0 S5) (?v1 S5) (?v2 S3)) (let ((?v_0 (f23 f53 ?v2))) (=> (= (f3 (f4 f5 (f6 (f12 f13 ?v0) ?v1)) ?v_0) f1) (= (f3 (f4 f5 ?v1) ?v_0) f1)))))
(assert (forall ((?v0 S5) (?v1 S5) (?v2 S3)) (let ((?v_0 (f23 f53 ?v2))) (=> (= (f3 (f4 f5 (f6 (f12 f13 ?v0) ?v1)) ?v_0) f1) (= (f3 (f4 f5 ?v0) ?v_0) f1)))))
(assert (forall ((?v0 S3) (?v1 S3) (?v2 S5)) (let ((?v_0 (f25 f26 ?v2))) (=> (= (f23 f53 ?v0) (f23 f53 ?v1)) (= (f23 f53 (f23 ?v_0 ?v0)) (f23 f53 (f23 ?v_0 ?v1)))))))
(assert (forall ((?v0 S5) (?v1 S5) (?v2 S3)) (let ((?v_0 (f4 f5 ?v0)) (?v_1 (f23 f53 ?v2))) (=> (= (f3 ?v_0 (f23 f53 (f23 (f25 f26 ?v1) ?v2))) f1) (=> (= (f3 (f4 f5 ?v1) ?v_1) f1) (= (f3 ?v_0 ?v_1) f1))))))
(assert (forall ((?v0 S5) (?v1 S3)) (let ((?v_0 (f23 f53 ?v1))) (=> (= (f3 (f4 f5 ?v0) ?v_0) f1) (= (f23 f53 (f23 (f25 f26 ?v0) ?v1)) ?v_0)))))
(assert (forall ((?v0 S5) (?v1 S3) (?v2 S5)) (let ((?v_0 (f4 f5 ?v0))) (=> (= (f3 ?v_0 (f23 f53 ?v1)) f1) (= (f3 ?v_0 (f23 f53 (f23 (f25 f26 ?v2) ?v1))) f1)))))
(assert (forall ((?v0 S5) (?v1 S3)) (let ((?v_0 (f4 f5 ?v0))) (=> (= (f3 ?v_0 (f23 f53 ?v1)) f1) (= (f3 ?v_0 (f23 f24 ?v1)) f1)))))
(assert (forall ((?v0 S5) (?v1 S3)) (let ((?v_0 (f4 f5 ?v0))) (=> (not (= (f3 ?v_0 (f23 f24 ?v1)) f1)) (not (= (f3 ?v_0 (f23 f53 ?v1)) f1))))))
(assert (forall ((?v0 S5) (?v1 S3)) (let ((?v_0 (f4 f5 ?v0))) (let ((?v_1 (= (f3 ?v_0 (f23 f24 ?v1)) f1))) (= (or (= (f3 ?v_0 (f23 f53 ?v1)) f1) ?v_1) ?v_1)))))
(assert (forall ((?v0 S5) (?v1 S3)) (let ((?v_0 (f4 f5 ?v0))) (let ((?v_1 (= (f3 ?v_0 (f23 f53 ?v1)) f1))) (= (and ?v_1 (= (f3 ?v_0 (f23 f24 ?v1)) f1)) ?v_1)))))
(assert (forall ((?v0 S3)) (= (f23 f24 (f23 f53 ?v0)) (f23 f24 ?v0))))
(assert (forall ((?v0 S3)) (let ((?v_0 (f23 f24 ?v0))) (= (f23 f53 ?v_0) ?v_0))))
(assert (forall ((?v0 S5) (?v1 S5) (?v2 S8)) (not (= (f6 (f12 f13 ?v0) ?v1) (f14 f20 ?v2)))))
(assert (forall ((?v0 S8) (?v1 S5) (?v2 S5)) (not (= (f14 f20 ?v0) (f6 (f12 f13 ?v1) ?v2)))))
(assert (forall ((?v0 S5) (?v1 S5) (?v2 S3)) (let ((?v_0 (f23 f24 ?v2))) (=> (= (f3 (f4 f5 (f6 (f12 f13 ?v0) ?v1)) ?v_0) f1) (= (f3 (f4 f5 ?v1) ?v_0) f1)))))
(assert (forall ((?v0 S5) (?v1 S5) (?v2 S3)) (let ((?v_0 (f23 f24 ?v2))) (=> (= (f3 (f4 f5 (f6 (f12 f13 ?v0) ?v1)) ?v_0) f1) (= (f3 (f4 f5 ?v0) ?v_0) f1)))))
(assert (forall ((?v0 S5) (?v1 S3)) (let ((?v_0 (f23 f24 ?v1))) (=> (= (f3 (f4 f5 ?v0) ?v_0) f1) (= (f23 f24 (f23 (f25 f26 ?v0) ?v1)) ?v_0)))))
(assert (forall ((?v0 S5) (?v1 S3) (?v2 S5)) (let ((?v_0 (f4 f5 ?v0))) (=> (= (f3 ?v_0 (f23 f24 ?v1)) f1) (= (f3 ?v_0 (f23 f24 (f23 (f25 f26 ?v2) ?v1))) f1)))))
(assert (forall ((?v0 S5) (?v1 S5) (?v2 S8) (?v3 S5)) (not (= (f6 (f12 f13 ?v0) ?v1) (f6 (f7 f8 ?v2) ?v3)))))
(assert (forall ((?v0 S8) (?v1 S5) (?v2 S5) (?v3 S5)) (not (= (f6 (f7 f8 ?v0) ?v1) (f6 (f12 f13 ?v2) ?v3)))))
(assert (forall ((?v0 S8) (?v1 S5) (?v2 S8)) (not (= (f6 (f7 f8 ?v0) ?v1) (f14 f20 ?v2)))))
(assert (forall ((?v0 S8) (?v1 S8) (?v2 S5)) (not (= (f14 f20 ?v0) (f6 (f7 f8 ?v1) ?v2)))))
(assert (forall ((?v0 S8) (?v1 S5) (?v2 S3)) (let ((?v_0 (f23 f24 ?v2))) (=> (= (f3 (f4 f5 (f6 (f7 f8 ?v0) ?v1)) ?v_0) f1) (=> (=> (= (f3 (f4 f5 ?v1) ?v_0) f1) false) false)))))
(assert (forall ((?v0 S8) (?v1 S5) (?v2 S3)) (let ((?v_0 (f23 f24 ?v2))) (=> (= (f3 (f4 f5 (f6 (f7 f8 ?v0) ?v1)) ?v_0) f1) (= (f3 (f4 f5 ?v1) ?v_0) f1)))))
(assert (forall ((?v0 S5) (?v1 S5) (?v2 S8)) (not (= (f6 (f12 f13 ?v0) ?v1) (f14 f15 ?v2)))))
(assert (forall ((?v0 S8) (?v1 S5) (?v2 S5)) (not (= (f14 f15 ?v0) (f6 (f12 f13 ?v1) ?v2)))))
(assert (forall ((?v0 S5) (?v1 S5) (?v2 S3)) (let ((?v_0 (f4 f5 (f6 (f12 f13 ?v0) ?v1))) (?v_1 (f23 f52 ?v2))) (= (= (f3 ?v_0 ?v_1) f1) (or (= (f3 ?v_0 ?v2) f1) (and (= (f3 (f4 f5 ?v0) ?v_1) f1) (= (f3 (f4 f5 ?v1) ?v_1) f1)))))))
(assert (forall ((?v0 S8) (?v1 S8)) (not (= (f14 f15 ?v0) (f14 f20 ?v1)))))
(assert (forall ((?v0 S8) (?v1 S8)) (not (= (f14 f20 ?v0) (f14 f15 ?v1)))))
(assert (forall ((?v0 S5) (?v1 S5) (?v2 S3)) (let ((?v_0 (f4 f5 ?v0)) (?v_1 (f23 f52 ?v2))) (=> (= (f3 ?v_0 (f23 f52 (f23 (f25 f26 ?v1) ?v2))) f1) (=> (= (f3 (f4 f5 ?v1) ?v_1) f1) (= (f3 ?v_0 ?v_1) f1))))))
(assert (forall ((?v0 S5) (?v1 S5) (?v2 S10)) (not (= (f6 (f12 f13 ?v0) ?v1) (f17 f18 ?v2)))))
(assert (forall ((?v0 S10) (?v1 S5) (?v2 S5)) (not (= (f17 f18 ?v0) (f6 (f12 f13 ?v1) ?v2)))))
(assert (forall ((?v0 S8) (?v1 S3)) (let ((?v_0 (f4 f5 (f14 f20 ?v0)))) (= (= (f3 ?v_0 (f23 f52 ?v1)) f1) (= (f3 ?v_0 ?v1) f1)))))
(assert (forall ((?v0 S10) (?v1 S8)) (not (= (f17 f18 ?v0) (f14 f20 ?v1)))))
(assert (forall ((?v0 S8) (?v1 S10)) (not (= (f14 f20 ?v0) (f17 f18 ?v1)))))
(assert (forall ((?v0 S8) (?v1 S5) (?v2 S8)) (not (= (f6 (f7 f8 ?v0) ?v1) (f14 f15 ?v2)))))
(assert (forall ((?v0 S8) (?v1 S8) (?v2 S5)) (not (= (f14 f15 ?v0) (f6 (f7 f8 ?v1) ?v2)))))
(assert (forall ((?v0 S8) (?v1 S5) (?v2 S10)) (not (= (f6 (f7 f8 ?v0) ?v1) (f17 f18 ?v2)))))
(assert (forall ((?v0 S10) (?v1 S8) (?v2 S5)) (not (= (f17 f18 ?v0) (f6 (f7 f8 ?v1) ?v2)))))
(assert (forall ((?v0 S8) (?v1 S3)) (let ((?v_0 (f4 f5 (f14 f15 ?v0)))) (= (= (f3 ?v_0 (f23 f52 ?v1)) f1) (= (f3 ?v_0 ?v1) f1)))))
(assert (forall ((?v0 S8) (?v1 S3)) (let ((?v_0 (f4 f5 (f14 f15 ?v0)))) (= (= (f3 ?v_0 (f23 f52 ?v1)) f1) (= (f3 ?v_0 ?v1) f1)))))
(assert (forall ((?v0 S8) (?v1 S10)) (not (= (f14 f15 ?v0) (f17 f18 ?v1)))))
(assert (forall ((?v0 S10) (?v1 S8)) (not (= (f17 f18 ?v0) (f14 f15 ?v1)))))
(assert (forall ((?v0 S17) (?v1 S31)) (= (= (f48 (f49 f50 ?v0) ?v1) f1) (= (f54 ?v1 ?v0) f1))))
(assert (forall ((?v0 S10) (?v1 S28)) (= (= (f44 (f45 f46 ?v0) ?v1) f1) (= (f59 ?v1 ?v0) f1))))
(assert (forall ((?v0 S22) (?v1 S20)) (= (= (f35 (f36 f37 ?v0) ?v1) f1) (= (f60 ?v1 ?v0) f1))))
(assert (forall ((?v0 S5) (?v1 S3)) (= (= (f3 (f4 f5 ?v0) ?v1) f1) (= (f61 ?v1 ?v0) f1))))
(assert (forall ((?v0 S10) (?v1 S3)) (= (f3 (f4 f5 (f17 f18 ?v0)) (f23 f52 ?v1)) f1)))
(assert (forall ((?v0 S5) (?v1 S5) (?v2 S3)) (let ((?v_0 (f25 f26 (f6 (f12 f13 ?v0) ?v1)))) (= (f23 f53 (f23 ?v_0 ?v2)) (f23 ?v_0 (f23 f53 (f23 (f25 f26 ?v0) (f23 (f25 f26 ?v1) ?v2))))))))
(assert (forall ((?v0 S8) (?v1 S5) (?v2 S5) (?v3 S3)) (let ((?v_1 (f25 f26 (f14 f20 ?v0))) (?v_0 (f25 f26 (f6 (f12 f13 ?v1) ?v2)))) (= (f23 ?v_1 (f23 ?v_0 ?v3)) (f23 ?v_0 (f23 ?v_1 ?v3))))))
(assert (forall ((?v0 S5) (?v1 S5) (?v2 S3)) (let ((?v_0 (f25 f26 (f6 (f12 f13 ?v0) ?v1)))) (= (f23 f24 (f23 ?v_0 ?v2)) (f23 ?v_0 (f23 f24 (f23 (f25 f26 ?v0) (f23 (f25 f26 ?v1) ?v2))))))))
(assert (forall ((?v0 S8) (?v1 S3)) (let ((?v_0 (f25 f26 (f14 f20 ?v0)))) (= (f23 f24 (f23 ?v_0 ?v1)) (f23 ?v_0 (f23 f24 ?v1))))))
(assert (forall ((?v0 S8) (?v1 S5) (?v2 S5) (?v3 S5) (?v4 S3)) (let ((?v_1 (f25 f26 (f6 (f7 f8 ?v0) ?v1))) (?v_0 (f25 f26 (f6 (f12 f13 ?v2) ?v3)))) (= (f23 ?v_1 (f23 ?v_0 ?v4)) (f23 ?v_0 (f23 ?v_1 ?v4))))))
(assert (forall ((?v0 S8) (?v1 S8) (?v2 S5) (?v3 S3)) (let ((?v_1 (f25 f26 (f14 f20 ?v0))) (?v_0 (f25 f26 (f6 (f7 f8 ?v1) ?v2)))) (= (f23 ?v_1 (f23 ?v_0 ?v3)) (f23 ?v_0 (f23 ?v_1 ?v3))))))
(assert (forall ((?v0 S8) (?v1 S5) (?v2 S3)) (let ((?v_0 (f25 f26 (f6 (f7 f8 ?v0) ?v1)))) (= (f23 f24 (f23 ?v_0 ?v2)) (f23 ?v_0 (f23 f24 (f23 (f25 f26 ?v1) ?v2)))))))
(assert (forall ((?v0 S8) (?v1 S3)) (let ((?v_0 (f25 f26 (f14 f15 ?v0)))) (= (f23 f53 (f23 ?v_0 ?v1)) (f23 ?v_0 (f23 f53 ?v1))))))
(assert (forall ((?v0 S5) (?v1 S5) (?v2 S3)) (let ((?v_0 (f23 f52 (f23 f53 ?v2)))) (= (= (f3 (f4 f5 (f6 (f12 f13 ?v0) ?v1)) ?v_0) f1) (and (= (f3 (f4 f5 ?v0) ?v_0) f1) (= (f3 (f4 f5 ?v1) ?v_0) f1))))))
(assert (forall ((?v0 S5) (?v1 S3)) (let ((?v_0 (f23 f52 (f23 f53 ?v1)))) (=> (= (f3 (f4 f5 ?v0) ?v_0) f1) (= (f23 f52 (f23 f53 (f23 (f25 f26 ?v0) ?v1))) ?v_0)))))
(assert (forall ((?v0 S10) (?v1 S3)) (let ((?v_0 (f25 f26 (f17 f18 ?v0)))) (= (f23 f53 (f23 ?v_0 ?v1)) (f23 ?v_0 (f23 f53 ?v1))))))
(assert (forall ((?v0 S8) (?v1 S8) (?v2 S3)) (let ((?v_1 (f25 f26 (f14 f20 ?v0))) (?v_0 (f25 f26 (f14 f15 ?v1)))) (= (f23 ?v_1 (f23 ?v_0 ?v2)) (f23 ?v_0 (f23 ?v_1 ?v2))))))
(assert (forall ((?v0 S5) (?v1 S17) (?v2 S1)) (let ((?v_0 (=> (not (= (f3 (f4 f5 ?v0) (f23 f53 (f28 (f29 f30 f31) ?v1))) f1)) (= ?v2 f1)))) (=> ?v_0 ?v_0))))
(assert (forall ((?v0 S8) (?v1 S3)) (let ((?v_0 (f25 f26 (f14 f15 ?v0)))) (= (f23 f24 (f23 ?v_0 ?v1)) (f23 ?v_0 (f23 f24 ?v1))))))
(assert (forall ((?v0 S8) (?v1 S10) (?v2 S3)) (let ((?v_1 (f25 f26 (f14 f20 ?v0))) (?v_0 (f25 f26 (f17 f18 ?v1)))) (= (f23 ?v_1 (f23 ?v_0 ?v2)) (f23 ?v_0 (f23 ?v_1 ?v2))))))
(assert (forall ((?v0 S10) (?v1 S3)) (let ((?v_0 (f25 f26 (f17 f18 ?v0)))) (= (f23 f24 (f23 ?v_0 ?v1)) (f23 ?v_0 (f23 f24 ?v1))))))
(assert (forall ((?v0 S8) (?v1 S5) (?v2 S8) (?v3 S3)) (let ((?v_1 (f25 f26 (f6 (f7 f8 ?v0) ?v1))) (?v_0 (f25 f26 (f14 f15 ?v2)))) (= (f23 ?v_1 (f23 ?v_0 ?v3)) (f23 ?v_0 (f23 ?v_1 ?v3))))))
(assert (forall ((?v0 S8) (?v1 S3) (?v2 S5)) (let ((?v_0 (f4 f5 (f6 (f7 f8 ?v0) ?v2)))) (=> (not (= (f3 (f4 f5 (f14 f20 ?v0)) ?v1) f1)) (= (= (f3 ?v_0 (f23 f52 ?v1)) f1) (= (f3 ?v_0 ?v1) f1))))))
(assert (forall ((?v0 S8) (?v1 S5) (?v2 S3)) (let ((?v_0 (f4 f5 (f6 (f7 f8 ?v0) ?v1))) (?v_1 (f23 f52 ?v2))) (= (= (f3 ?v_0 ?v_1) f1) (or (= (f3 ?v_0 ?v2) f1) (and (= (f3 (f4 f5 ?v1) ?v_1) f1) (= (f3 (f4 f5 (f14 f20 ?v0)) ?v2) f1)))))))
(assert (forall ((?v0 S8) (?v1 S5) (?v2 S10) (?v3 S3)) (let ((?v_1 (f25 f26 (f6 (f7 f8 ?v0) ?v1))) (?v_0 (f25 f26 (f17 f18 ?v2)))) (= (f23 ?v_1 (f23 ?v_0 ?v3)) (f23 ?v_0 (f23 ?v_1 ?v3))))))
(assert (forall ((?v0 S10) (?v1 S10) (?v2 S5) (?v3 S17)) (=> (= (f35 (f36 f37 (f38 (f39 (f40 f41 ?v0) ?v1) ?v2)) (f42 f43 ?v3)) f1) (= (f3 (f4 f5 ?v2) (f28 (f29 f30 ?v0) ?v3)) f1))))
(assert (forall ((?v0 S10) (?v1 S5) (?v2 S3)) (let ((?v_0 (f9 f10 ?v0)) (?v_1 (f23 f53 ?v2))) (=> (= (f3 (f4 f5 (f6 (f7 f8 ?v_0) ?v1)) ?v_1) f1) (=> (= (f3 (f4 f5 (f14 f20 ?v_0)) ?v_1) f1) (= (f3 (f4 f5 ?v1) ?v_1) f1))))))
(assert (forall ((?v0 S5) (?v1 S17) (?v2 S1)) (let ((?v_0 (=> (not (= (f3 (f4 f5 ?v0) (f23 f52 (f23 f53 (f28 (f29 f30 f31) ?v1)))) f1)) (= ?v2 f1)))) (=> ?v_0 ?v_0))))
(assert (forall ((?v0 S10) (?v1 S10) (?v2 S5) (?v3 S17)) (=> (= (f35 (f36 f37 (f38 (f39 (f40 f41 ?v0) ?v1) ?v2)) (f42 f43 ?v3)) f1) (= (f3 (f4 f5 ?v2) (f28 (f29 f30 f31) ?v3)) f1))))
(assert (forall ((?v0 S10) (?v1 S17) (?v2 S8) (?v3 S10) (?v4 S5) (?v5 S8)) (let ((?v_0 (f14 f20 ?v2)) (?v_3 (f28 (f29 f30 f31) ?v1))) (let ((?v_1 (f12 f13 ?v_0)) (?v_5 (f42 f43 ?v1)) (?v_2 (f14 f15 ?v5))) (let ((?v_4 (f6 (f7 f8 ?v2) (f6 (f12 f13 ?v_2) ?v_2)))) (=> (not (= (f44 (f45 f46 ?v0) f47) f1)) (=> (= (f48 (f49 f50 ?v1) f51) f1) (=> (not (= (f3 (f4 f5 ?v_0) (f23 f53 ?v_3)) f1)) (=> (= (f35 (f36 f37 (f38 (f39 (f40 f41 f62) ?v3) (f6 (f7 f8 (f9 f10 ?v3)) (f6 (f12 f13 ?v4) (f6 (f12 f13 (f17 f18 ?v0)) (f6 ?v_1 (f6 (f7 f8 (f9 f10 ?v0)) (f6 ?v_1 (f17 f18 ?v3))))))))) ?v_5) f1) (=> (= (f3 (f4 f5 ?v_4) (f23 f24 ?v_3)) f1) (= (f35 (f36 f37 (f38 (f39 (f40 f41 ?v3) ?v0) ?v_4)) ?v_5) f1)))))))))))
(assert (forall ((?v0 S17) (?v1 S8) (?v2 S10) (?v3 S5) (?v4 S10) (?v5 S5) (?v6 S8)) (let ((?v_0 (f14 f20 ?v1)) (?v_1 (f28 (f29 f30 f31) ?v0)) (?v_3 (f42 f43 ?v0)) (?v_2 (f6 (f7 f8 ?v1) (f14 f15 ?v6)))) (=> (= (f48 (f49 f50 ?v0) f51) f1) (=> (not (= (f3 (f4 f5 ?v_0) (f23 f53 ?v_1)) f1)) (=> (= (f35 (f36 f37 (f38 (f39 (f40 f41 f62) ?v2) (f6 (f7 f8 (f9 f10 ?v2)) (f6 (f12 f13 ?v3) (f6 (f12 f13 (f17 f18 ?v4)) (f6 (f12 f13 ?v_0) ?v5)))))) ?v_3) f1) (=> (= (f3 (f4 f5 ?v_2) (f23 f24 ?v_1)) f1) (= (f35 (f36 f37 (f38 (f39 (f40 f41 ?v4) ?v2) ?v_2)) ?v_3) f1))))))))
(assert (forall ((?v0 S10) (?v1 S5) (?v2 S10) (?v3 S8) (?v4 S5) (?v5 S17)) (let ((?v_0 (f6 (f7 f8 (f9 f10 ?v0)) (f6 (f12 f13 ?v1) (f6 (f12 f13 (f17 f18 ?v2)) (f6 (f12 f13 (f14 f20 ?v3)) ?v4)))))) (=> (= (f3 (f4 f5 ?v_0) (f23 f24 (f28 (f29 f30 f31) ?v5))) f1) (=> (not (= (f44 (f45 f46 ?v0) f47) f1)) (=> (= (f48 (f49 f50 ?v5) f51) f1) (= (f35 (f36 f37 (f38 (f39 (f40 f41 f62) ?v0) ?v_0)) (f42 f43 ?v5)) f1)))))))
(assert (forall ((?v0 S8) (?v1 S8) (?v2 S17) (?v3 S10) (?v4 S10)) (let ((?v_0 (f14 f15 ?v1))) (let ((?v_2 (f6 (f7 f8 ?v0) (f6 (f12 f13 ?v_0) ?v_0))) (?v_1 (f23 f24 (f28 (f29 f30 f31) ?v2)))) (=> (= (f3 (f4 f5 ?v_2) ?v_1) f1) (=> (= (f3 (f4 f5 (f6 (f7 f8 (f9 f10 ?v3)) (f6 (f12 f13 (f14 f20 ?v0)) (f17 f18 ?v4)))) ?v_1) f1) (=> (forall ((?v5 S5) (?v6 S5)) (not (= (f35 (f36 f37 (f38 (f39 f63 f31) (f6 (f12 f13 ?v5) (f6 (f12 f13 ?v6) (f14 f20 ?v0))))) (f42 f43 ?v2)) f1))) (=> (not (= (f44 (f45 f46 ?v4) f47) f1)) (=> (not (= (f44 (f45 f46 ?v3) f47) f1)) (=> (= (f48 (f49 f50 ?v2) f51) f1) (= (f35 (f36 f37 (f38 (f39 (f40 f41 ?v4) ?v3) ?v_2)) (f42 f43 ?v2)) f1)))))))))))
(assert (forall ((?v0 S8) (?v1 S8) (?v2 S17) (?v3 S10) (?v4 S5) (?v5 S10) (?v6 S5)) (let ((?v_1 (f6 (f7 f8 ?v0) (f14 f15 ?v1))) (?v_0 (f23 f24 (f28 (f29 f30 f31) ?v2)))) (=> (= (f3 (f4 f5 ?v_1) ?v_0) f1) (=> (= (f3 (f4 f5 (f6 (f7 f8 (f9 f10 ?v3)) (f6 (f12 f13 ?v4) (f6 (f12 f13 (f17 f18 ?v5)) (f6 (f12 f13 (f14 f20 ?v0)) ?v6))))) ?v_0) f1) (=> (forall ((?v7 S5)) (not (= (f35 (f36 f37 (f38 (f39 f63 f31) (f6 (f12 f13 ?v4) (f6 (f12 f13 ?v7) (f14 f20 ?v0))))) (f42 f43 ?v2)) f1))) (=> (not (= (f44 (f45 f46 ?v3) f47) f1)) (=> (not (= (f44 (f45 f46 ?v5) f47) f1)) (=> (= (f48 (f49 f50 ?v2) f51) f1) (= (f35 (f36 f37 (f38 (f39 (f40 f41 ?v5) ?v3) ?v_1)) (f42 f43 ?v2)) f1))))))))))
(assert (forall ((?v0 S17) (?v1 S8) (?v2 S10) (?v3 S5) (?v4 S10) (?v5 S5) (?v6 S8)) (let ((?v_0 (f14 f20 ?v1)) (?v_1 (f28 (f29 f30 f31) ?v0))) (=> (= (f48 (f49 f50 ?v0) f51) f1) (=> (not (= (f3 (f4 f5 ?v_0) (f23 f53 ?v_1)) f1)) (=> (= (f35 (f36 f37 (f38 (f39 (f40 f41 f62) ?v2) (f6 (f7 f8 (f9 f10 ?v2)) (f6 (f12 f13 ?v3) (f6 (f12 f13 (f17 f18 ?v4)) (f6 (f12 f13 ?v_0) ?v5)))))) (f42 f43 ?v0)) f1) (=> (= (f3 (f4 f5 (f6 (f7 f8 ?v1) (f14 f15 ?v6))) (f23 f24 ?v_1)) f1) (exists ((?v7 S10)) (= (f35 (f36 f37 (f38 (f39 (f40 f41 ?v7) ?v4) ?v5)) (f42 f43 ?v0)) f1)))))))))
(assert (forall ((?v0 S10) (?v1 S8) (?v2 S10) (?v3 S17)) (=> (= (f3 (f4 f5 (f6 (f7 f8 (f9 f10 ?v0)) (f6 (f12 f13 (f14 f20 ?v1)) (f17 f18 ?v2)))) (f23 f24 (f28 (f29 f30 f31) ?v3))) f1) (=> (not (= (f44 (f45 f46 ?v0) f47) f1)) (=> (= (f48 (f49 f50 ?v3) f51) f1) (exists ((?v4 S5)) (let ((?v_0 (f12 f13 (f14 f20 ?v1)))) (= (f35 (f36 f37 (f38 (f39 (f40 f41 f62) ?v2) (f6 (f7 f8 (f9 f10 ?v2)) (f6 (f12 f13 ?v4) (f6 (f12 f13 (f17 f18 ?v0)) (f6 ?v_0 (f6 (f7 f8 (f9 f10 ?v0)) (f6 ?v_0 (f17 f18 ?v2))))))))) (f42 f43 ?v3)) f1))))))))
(assert (forall ((?v0 S10) (?v1 S5) (?v2 S10) (?v3 S8) (?v4 S5) (?v5 S17) (?v6 S10) (?v7 S5) (?v8 S10) (?v9 S5)) (let ((?v_0 (f40 f41 f62)) (?v_1 (f12 f13 (f14 f20 ?v3))) (?v_2 (f42 f43 ?v5))) (=> (= (f35 (f36 f37 (f38 (f39 ?v_0 ?v0) (f6 (f7 f8 (f9 f10 ?v0)) (f6 (f12 f13 ?v1) (f6 (f12 f13 (f17 f18 ?v2)) (f6 ?v_1 ?v4)))))) ?v_2) f1) (=> (= (f35 (f36 f37 (f38 (f39 ?v_0 ?v6) (f6 (f7 f8 (f9 f10 ?v6)) (f6 (f12 f13 ?v7) (f6 (f12 f13 (f17 f18 ?v8)) (f6 ?v_1 ?v9)))))) ?v_2) f1) (=> (= (f48 (f49 f50 ?v5) f51) f1) (and (= ?v0 ?v6) (and (= ?v1 ?v7) (and (= ?v2 ?v8) (= ?v4 ?v9))))))))))
(assert (forall ((?v0 S10) (?v1 S5) (?v2 S5) (?v3 S5) (?v4 S5) (?v5 S17)) (=> (= (f35 (f36 f37 (f38 (f39 (f40 f41 f62) ?v0) (f6 (f7 f8 (f9 f10 ?v0)) (f6 (f12 f13 ?v1) (f6 (f12 f13 ?v2) (f6 (f12 f13 ?v3) ?v4)))))) (f42 f43 ?v5)) f1) (= (f3 (f4 f5 ?v3) (f23 f24 (f28 (f29 f30 f31) ?v5))) f1))))
(assert (forall ((?v0 S5) (?v1 S3)) (let ((?v_0 (f25 f26 ?v0))) (=> (forall ((?v2 S5)) (let ((?v_1 (f4 f5 ?v2))) (=> (= (f3 ?v_1 (f23 f24 (f23 ?v_0 ?v1))) f1) (= (f3 ?v_1 (f23 ?v_0 (f23 f24 ?v1))) f1)))) (= (f23 f24 (f23 ?v_0 ?v1)) (f23 ?v_0 (f23 f24 ?v1)))))))
(assert (forall ((?v0 S10) (?v1 S5) (?v2 S10) (?v3 S5)) (= (= (f38 (f39 f63 ?v0) ?v1) (f38 (f39 f63 ?v2) ?v3)) (and (= ?v0 ?v2) (= ?v1 ?v3)))))
(assert (not (= f31 f62)))
(assert (not (= f62 f31)))
(assert (forall ((?v0 S10) (?v1 S5) (?v2 S10) (?v3 S10) (?v4 S5)) (not (= (f38 (f39 f63 ?v0) ?v1) (f38 (f39 (f40 f41 ?v2) ?v3) ?v4)))))
(assert (forall ((?v0 S10) (?v1 S10) (?v2 S5) (?v3 S10) (?v4 S5)) (not (= (f38 (f39 (f40 f41 ?v0) ?v1) ?v2) (f38 (f39 f63 ?v3) ?v4)))))
(assert (not (= (f44 (f45 f46 f62) f47) f1)))
(assert (forall ((?v0 S10) (?v1 S5) (?v2 S17)) (=> (= (f35 (f36 f37 (f38 (f39 f63 ?v0) ?v1)) (f42 f43 ?v2)) f1) (= (f3 (f4 f5 ?v1) (f28 (f29 f30 ?v0) ?v2)) f1))))
(assert (forall ((?v0 S10) (?v1 S5) (?v2 S17)) (=> (= (f35 (f36 f37 (f38 (f39 f63 ?v0) ?v1)) (f42 f43 ?v2)) f1) (=> (= (f44 (f45 f46 ?v0) f47) f1) (= (f3 (f4 f5 ?v1) (f28 (f29 f30 f31) ?v2)) f1)))))
(assert (forall ((?v0 S10) (?v1 S5) (?v2 S10) (?v3 S8) (?v4 S17)) (let ((?v_1 (f14 f20 ?v3))) (let ((?v_0 (f12 f13 ?v_1))) (=> (= (f35 (f36 f37 (f38 (f39 (f40 f41 f62) ?v0) (f6 (f7 f8 (f9 f10 ?v0)) (f6 (f12 f13 ?v1) (f6 (f12 f13 (f17 f18 ?v2)) (f6 ?v_0 (f6 (f7 f8 (f9 f10 ?v2)) (f6 ?v_0 (f17 f18 ?v0))))))))) (f42 f43 ?v4)) f1) (=> (not (= (f44 (f45 f46 ?v0) f47) f1)) (=> (not (= (f44 (f45 f46 ?v2) f47) f1)) (=> (= (f48 (f49 f50 ?v4) f51) f1) (=> (forall ((?v5 S5)) (not (= (f35 (f36 f37 (f38 (f39 f63 f31) (f6 (f12 f13 ?v1) (f6 (f12 f13 ?v5) ?v_1)))) (f42 f43 ?v4)) f1))) (not (= (f3 (f4 f5 ?v_1) (f23 f53 (f28 (f29 f30 f31) ?v4))) f1)))))))))))
(assert (forall ((?v0 S10) (?v1 S8) (?v2 S5) (?v3 S10) (?v4 S8) (?v5 S5) (?v6 S17)) (let ((?v_0 (f14 f20 ?v4))) (=> (= (f35 (f36 f37 (f38 (f39 (f40 f41 f62) ?v0) (f6 (f7 f8 ?v1) (f6 (f12 f13 ?v2) (f6 (f12 f13 (f17 f18 ?v3)) (f6 (f12 f13 ?v_0) ?v5)))))) (f42 f43 ?v6)) f1) (=> (forall ((?v7 S5)) (not (= (f35 (f36 f37 (f38 (f39 f63 f31) (f6 (f12 f13 ?v2) (f6 (f12 f13 ?v7) ?v_0)))) (f42 f43 ?v6)) f1))) (=> (not (= (f44 (f45 f46 ?v0) f47) f1)) (=> (not (= (f44 (f45 f46 ?v3) f47) f1)) (=> (= (f48 (f49 f50 ?v6) f51) f1) (not (= (f3 (f4 f5 ?v_0) (f23 f53 (f28 (f29 f30 f31) ?v6))) f1))))))))))
(assert (forall ((?v0 S17) (?v1 S10) (?v2 S10) (?v3 S8) (?v4 S8) (?v5 S8) (?v6 S5)) (let ((?v_2 (f14 f15 ?v4)) (?v_0 (f42 f43 ?v0)) (?v_1 (f12 f13 (f14 f15 ?v5))) (?v_3 (f14 f20 ?v3))) (=> (= (f48 (f49 f50 ?v0) f51) f1) (=> (= (f35 (f36 f37 (f38 (f39 (f40 f41 ?v1) ?v2) (f6 (f7 f8 ?v3) ?v_2))) ?v_0) f1) (=> (= (f35 (f36 f37 (f38 (f39 (f40 f41 f62) ?v2) (f6 (f7 f8 (f9 f10 ?v2)) (f6 ?v_1 (f6 (f12 f13 (f17 f18 ?v1)) (f6 (f12 f13 ?v_3) ?v6)))))) ?v_0) f1) (= (f48 (f49 f50 (f64 (f65 f66 (f38 (f39 f63 f31) (f6 ?v_1 (f6 (f12 f13 ?v_2) ?v_3)))) ?v0)) f51) f1)))))))
(assert (forall ((?v0 S17) (?v1 S10) (?v2 S10) (?v3 S8) (?v4 S10) (?v5 S8) (?v6 S5)) (let ((?v_1 (f14 f15 ?v3)) (?v_0 (f12 f13 (f17 f18 ?v4))) (?v_2 (f42 f43 ?v0)) (?v_3 (f40 f41 ?v1))) (=> (= (f48 (f49 f50 ?v0) f51) f1) (=> (not (= ?v1 f62)) (=> (= (f35 (f36 f37 (f38 (f39 (f40 f41 ?v2) ?v1) (f6 (f7 f8 (f9 f10 ?v1)) (f6 (f12 f13 ?v_1) (f6 ?v_0 (f6 (f12 f13 (f14 f20 ?v5)) ?v6)))))) ?v_2) f1) (=> (= (f35 (f36 f37 (f38 (f39 ?v_3 f62) (f6 (f12 f13 (f17 f18 ?v1)) (f6 ?v_0 ?v_1)))) ?v_2) f1) (= (f48 (f49 f50 (f64 (f65 f66 (f38 (f39 ?v_3 ?v4) ?v6)) ?v0)) f51) f1))))))))
(check-sat)
(exit)
